453,332
1108,267
207,331
417,42
718,520
761,366
342,160
488,672
148,322
504,378
628,433
570,748
681,166
620,21
1011,406
681,286
561,406
702,427
573,193
482,342
504,434
342,67
477,806
296,345
892,115
558,237
769,285
733,334
766,379
607,178
